NAME : n80w140.004.423.tour
COMMENT : Length = 423
COMMENT : Found by LKH [Keld Helsgaun] Tue May  2 05:19:07 2017
TYPE : TOUR
DIMENSION : 81
TOUR_SECTION
1
79
9
6
21
25
55
41
62
30
22
73
49
45
46
11
65
42
77
75
7
27
78
60
23
47
52
44
72
33
61
17
26
34
80
40
19
3
35
57
63
10
37
51
32
38
64
59
71
31
56
16
67
48
29
15
18
14
43
2
68
70
20
76
74
13
24
53
28
50
66
4
36
39
54
12
5
58
81
8
69
-1
EOF
